
Log started (V11.0.0) Sun Apr 13 14:07:56 2008

Tried aggregator 1 time.
Reduced MIP has 240 rows, 8001 columns, and 16040 nonzeros.
Presolve time =    0.05 sec.
Clique table members: 200.
MIP emphasis: balance optimality and feasibility.
MIP search method: dynamic search.
Parallel mode: none, using 1 thread.
Root relaxation solution time =    0.23 sec.

        Nodes                                         Cuts/
   Node  Left     Objective  IInf  Best Integer     Best Node    ItCnt     Gap

*     0+    0                         9809.0000       16.8660      926   99.83%
*     0+    0                           23.0000       16.8660      926   26.67%
      0     0       17.0000    68       23.0000      Fract: 5      954   26.09%
*     0+    0                           22.0000       17.0000      954   22.73%
      0     0       17.0000    63       22.0000   Impl Bds: 1      956   22.73%
*     0+    0                           21.0000       17.0000      956   19.05%
      0     0       17.0000    69       21.0000       Cuts: 2      981   19.05%
*     0+    0                           20.0000       17.0000      981   15.00%
      0     0       17.0000    65       20.0000   Impl Bds: 1      987   15.00%
      0     0       17.0000    61       20.0000       Cuts: 2     1017   15.00%

Repeating presolve.
Tried aggregator 1 time.
MIP Presolve eliminated 0 rows and 6465 columns.
Aggregator did 3 substitutions.
Reduced MIP has 237 rows, 1533 columns, and 3104 nonzeros.
Tried aggregator 1 time.
Represolve time =    0.08 sec.
Clique table members: 566.
MIP emphasis: balance optimality and feasibility.
MIP search method: dynamic search.
Parallel mode: none, using 1 thread.
Root relaxation solution time =    0.05 sec.

        Nodes                                         Cuts/
   Node  Left     Objective  IInf  Best Integer     Best Node    ItCnt     Gap

      0     0       17.0000    68       20.0000       17.0000      445   15.00%
      0     2       17.0000    68       20.0000       17.0000      445   15.00%
    100    88    infeasible             20.0000       17.0000     3072   15.00%
    200   179       19.0000    68       20.0000       17.0000     6862   15.00%
    300   261       18.0000    97       20.0000       18.0000     9457   10.00%
    400   356       18.0000    78       20.0000       18.0000    12102   10.00%
*   476+  281                           19.0000       18.0000    15527    5.26%
    500   285       18.0000    68       19.0000       18.0000    19040    5.26%
    600   231       18.0000   108       19.0000       18.0000    50487    5.26%
    700   169       18.0000   117       19.0000       18.0000   103033    5.26%
*   716+    0                           18.0000       18.0000   104684    0.00%

Clique cuts applied:  7
Cover cuts applied:  275
Mixed integer rounding cuts applied:  63
Zero-half cuts applied:  6
Gomory fractional cuts applied:  15

Solution pool: 7 solutions saved.

MIP - Integer optimal solution:  Objective = 1.8000000000e+001
Solution time =   27.66 sec.  Iterations = 104684  Nodes = 716


Incumbent solution
Variable Name           Solution Value
Cmax                         18.000000
X_1_37                        1.000000
X_2_30                        1.000000
X_3_32                        1.000000
X_4_39                        1.000000
X_5_9                         1.000000
X_6_5                         1.000000
X_7_40                        1.000000
X_8_32                        1.000000
X_9_14                        1.000000
X_10_3                        1.000000
X_11_29                       1.000000
X_12_36                       1.000000
X_13_30                       1.000000
X_14_32                       1.000000
X_15_2                        1.000000
X_16_31                       1.000000
X_17_12                       1.000000
X_18_28                       1.000000
X_19_36                       1.000000
X_20_10                       1.000000
X_21_13                       1.000000
X_22_13                       1.000000
X_23_15                       1.000000
X_24_19                       1.000000
X_25_14                       1.000000
X_26_19                       1.000000
X_27_15                       1.000000
X_28_15                       1.000000
X_29_4                        1.000000
X_30_26                       1.000000
X_31_33                       1.000000
X_32_20                       1.000000
X_33_21                       1.000000
X_34_37                       1.000000
X_35_20                       1.000000
X_36_17                       1.000000
X_37_11                       1.000000
X_38_20                       1.000000
X_39_40                       1.000000
X_40_13                       1.000000
X_41_34                       1.000000
X_42_26                       1.000000
X_43_32                       1.000000
X_44_4                        1.000000
X_45_25                       1.000000
X_46_27                       1.000000
X_47_20                       1.000000
X_48_38                       1.000000
X_49_1                        1.000000
X_50_35                       1.000000
X_51_28                       1.000000
X_52_30                       1.000000
X_53_11                       1.000000
X_54_12                       1.000000
X_55_16                       1.000000
X_56_9                        1.000000
X_57_39                       1.000000
X_58_10                       1.000000
X_59_27                       1.000000
X_60_15                       1.000000
X_61_11                       1.000000
X_62_24                       1.000000
X_63_17                       1.000000
X_64_16                       1.000000
X_65_37                       1.000000
X_66_29                       1.000000
X_67_19                       1.000000
X_68_27                       1.000000
X_69_27                       1.000000
X_70_2                        1.000000
X_71_28                       1.000000
X_72_16                       1.000000
X_73_20                       1.000000
X_74_22                       1.000000
X_75_29                       1.000000
X_76_21                       1.000000
X_77_30                       1.000000
X_78_35                       1.000000
X_79_31                       1.000000
X_80_9                        1.000000
X_81_31                       1.000000
X_82_20                       1.000000
X_83_39                       1.000000
X_84_37                       1.000000
X_85_21                       1.000000
X_86_39                       1.000000
X_87_19                       1.000000
X_88_35                       1.000000
X_89_33                       1.000000
X_90_33                       1.000000
X_91_3                        1.000000
X_92_19                       1.000000
X_93_13                       1.000000
X_94_3                        1.000000
X_95_17                       1.000000
X_96_14                       1.000000
X_97_11                       1.000000
X_98_26                       1.000000
X_99_31                       1.000000
X_100_23                      1.000000
X_101_40                      1.000000
X_102_26                      1.000000
X_103_28                      1.000000
X_104_31                      1.000000
X_105_38                      1.000000
X_106_16                      1.000000
X_107_8                       1.000000
X_108_25                      1.000000
X_109_17                      1.000000
X_110_38                      1.000000
X_111_30                      1.000000
X_112_5                       1.000000
X_113_2                       1.000000
X_114_23                      1.000000
X_115_24                      1.000000
X_116_10                      1.000000
X_117_8                       1.000000
X_118_8                       1.000000
X_119_9                       1.000000
X_120_29                      1.000000
X_121_14                      1.000000
X_122_10                      1.000000
X_123_16                      1.000000
X_124_32                      1.000000
X_125_24                      1.000000
X_126_6                       1.000000
X_127_23                      1.000000
X_128_24                      1.000000
X_129_10                      1.000000
X_130_9                       1.000000
X_131_3                       1.000000
X_132_40                      1.000000
X_133_7                       1.000000
X_134_5                       1.000000
X_135_15                      1.000000
X_136_19                      1.000000
X_137_9                       1.000000
X_138_8                       1.000000
X_139_4                       1.000000
X_140_27                      1.000000
X_141_31                      1.000000
X_142_1                       1.000000
X_143_29                      1.000000
X_144_2                       1.000000
X_145_33                      1.000000
X_146_23                      1.000000
X_147_33                      1.000000
X_148_4                       1.000000
X_149_16                      1.000000
X_150_10                      1.000000
X_151_36                      1.000000
X_152_13                      1.000000
X_153_22                      1.000000
X_154_38                      1.000000
X_155_35                      1.000000
X_156_18                      1.000000
X_157_26                      1.000000
X_158_34                      1.000000
X_159_36                      1.000000
X_160_25                      1.000000
X_161_7                       1.000000
X_162_14                      1.000000
X_163_30                      1.000000
X_164_25                      1.000000
X_165_18                      1.000000
X_166_5                       1.000000
X_167_1                       1.000000
X_168_20                      1.000000
X_169_12                      1.000000
X_170_20                      1.000000
X_171_26                      1.000000
X_172_38                      1.000000
X_173_11                      1.000000
X_174_21                      1.000000
X_175_6                       1.000000
X_176_22                      1.000000
X_177_25                      1.000000
X_178_7                       1.000000
X_179_2                       1.000000
X_180_3                       1.000000
X_181_28                      1.000000
X_182_25                      1.000000
X_183_28                      1.000000
X_184_27                      1.000000
X_185_13                      1.000000
X_186_9                       1.000000
X_187_38                      1.000000
X_188_37                      1.000000
X_189_27                      1.000000
X_190_3                       1.000000
X_191_29                      1.000000
X_192_31                      1.000000
X_193_26                      1.000000
X_194_34                      1.000000
X_195_4                       1.000000
X_196_6                       1.000000
X_197_12                      1.000000
X_198_39                      1.000000
X_199_32                      1.000000
X_200_38                      1.000000
All other variables in the range 1-8001 are 0.
